% Auto-generated by scripts/generate_dzn.py
% problem_type   = regex
% instance       = regex_21
% source_json    = instances_json/1_medium_blowup/regex_21.json
% blowup         = 4.470588235294118
% representation = NFA

mode = 1;

var_count = 18;
n_constraints = 2;
Q = 10;
S = 2;
q0 = [1, 1];
F = [{10}, {7}];
weights = [3, 4, 9, 1, 2, 1, 3, 5, 10, 7, 8, 4, 5, 1, 7, 2, 10, 8];
d_dfa = array3d(1..2, 1..10, 1..2, [
  % k = 1
    0, 0,
    0, 0,
    0, 0,
    0, 0,
    0, 0,
    0, 0,
    0, 0,
    0, 0,
    0, 0,
    0, 0,

  % k = 2
    0, 0,
    0, 0,
    0, 0,
    0, 0,
    0, 0,
    0, 0,
    0, 0,
    0, 0,
    0, 0,
    0, 0
]);
d_nfa = array3d(1..2, 1..10, 1..2, [
  % k = 1
    {1, 2}, {1},
    {}, {3},
    {4}, {},
    {5}, {5},
    {6}, {6},
    {7}, {7},
    {8}, {8},
    {9}, {9},
    {10}, {10},
    {}, {},

  % k = 2
    {1}, {2},
    {2}, {3},
    {3}, {4},
    {4}, {5},
    {5}, {6},
    {6}, {7},
    {7}, {},
    {}, {},
    {}, {},
    {}, {}
]);
